c   nvars nclauses
p cnf 20 53
1 -19 0
5 -19 0
-2 -19 0
17 -19 0
-1 -5 2 -17 19 0
5 -19 0
3 -19 0
-5 -3 19 0
-4 -6 0
-3 -6 0
2 -6 0
4 3 -2 6 0
-19 7 0
-20 7 0
-6 7 0
-4 7 0
19 20 6 4 -7 0
4 -10 0
3 -10 0
-4 -3 10 0
4 -11 0
2 -11 0
-4 -2 11 0
4 -12 0
1 -12 0
-4 -1 12 0
3 -13 0
2 -13 0
-3 -2 13 0
3 -14 0
1 -14 0
-3 -1 14 0
2 -15 0
1 -15 0
-2 -1 15 0
-9 16 0
-10 16 0
-11 16 0
-12 16 0
-13 16 0
-14 16 0
-15 16 0
9 10 11 12 13 14 15 -16 0
-2 8 0
-1 8 0
-3 8 0
-4 8 0
1 2 3 4 -8 0
7 8 9 0
-7 8 -9 0
-7 -8 9 0
7 -8 -9 0
16 0
